20
6 9
6 10
6 2
6 11
6 17
6 8
6 0
6 5
6 19
9 14
9 19
9 8
9 18
9 0
9 5
9 4
9 17
10 17
10 4
10 13
10 5
10 15
10 8
10 12
10 2
17 13
17 3
17 4
17 7
17 15
17 11
7 12
7 0
7 3
7 8
7 15
7 11
7 14
7 16
12 3
12 1
12 8
12 13
12 19
12 5
12 11
0 1
0 14
0 5
0 15
0 19
0 13
13 16
13 4
13 2
13 18
13 3
3 18
3 16
3 4
3 14
3 19
2 5
2 11
2 8
2 19
2 14
2 1
5 18
5 16
5 19
1 11
1 15
1 16
1 14
1 4
1 18
11 16
11 19
11 8
4 19
4 18
4 14
18 8
18 15
18 16
8 15
15 14
15 16
14 16
